files/upTests/tupley15/0001.eprime
language ESSENCE' 1.0

find pain_tuple1_tuple1_Explicit:
        matrix indexed by [int(1..2), int(1..1)] of int(1, 2)
find pain_tuple1_tuple2: matrix indexed by [int(1..2)] of int(4, 5)
find pain_tuple2: matrix indexed by [int(1..2)] of int(8, 9)
such that
    forAll v__9 : int(1..1) . 2 = pain_tuple1_tuple1_Explicit[1, v__9],
    exists v__12 : int(1..1) . pain_tuple1_tuple1_Explicit[1, v__12] = 2,
    pain_tuple1_tuple2[1] = 5,
    forAll v__15 : int(1..1) . 1 = pain_tuple1_tuple1_Explicit[2, v__15],
    exists v__18 : int(1..1) . pain_tuple1_tuple1_Explicit[2, v__18] = 1,
    pain_tuple1_tuple2[2] = 4,
    pain_tuple2[1] = 8,
    pain_tuple2[2] = 9,
    forAll v__3 : int(1..2) . allDiff(pain_tuple1_tuple1_Explicit[v__3, ..])
