files/upTests/tupley15/0001.eprime.solution
language ESSENCE' 1.0
$ minion Nodes: 1
$ minion TotalTime: 0.000591
$ Savile Row TotalTime: 0.23
letting pain_tuple1_tuple1_Explicit be [[2], 
[1]]
letting pain_tuple2 be [8, 9]
letting pain_tuple1_tuple2 be [5, 4]
